\ This file has been generated by DOcplex
\ ENCODING=ISO-8859-1
\Problem name: MCLP1_un_c_3x3-2

Minimize
 obj: - 44 y_0 - 43 y_1 - 46 y_2 - 46 y_3 - 47 y_4 - 44 y_5 - 46 y_6 - 46 y_7
      - 47 y_8 - 240 x_0 - 240 x_2 - 240 x_6 + 48 c1a_0_int_slack_0
      + 48 c1a_1_int_slack_0 + 48 c1a_1_int_slack_1 + 48 c1a_2_int_slack_0
      + 48 c1a_3_int_slack_0 + 48 c1a_3_int_slack_1 + 48 c1a_5_int_slack_0
      + 48 c1a_6_int_slack_0 + 48 c1a_7_int_slack_0 + [ 48 y_0^2 + 96 y_0*x_0
      - 96 y_0*c1a_0_int_slack_0 + 48 y_1^2 + 96 y_1*x_0 + 96 y_1*x_2
      - 96 y_1*c1a_1_int_slack_0 - 96 y_1*c1a_1_int_slack_1 + 48 y_2^2
      + 96 y_2*x_2 - 96 y_2*c1a_2_int_slack_0 + 48 y_3^2 + 96 y_3*x_0
      + 96 y_3*x_6 - 96 y_3*c1a_3_int_slack_0 - 96 y_3*c1a_3_int_slack_1
      + 48 y_4^2 + 48 y_5^2 + 96 y_5*x_2 - 96 y_5*c1a_5_int_slack_0 + 48 y_6^2
      + 96 y_6*x_6 - 96 y_6*c1a_6_int_slack_0 + 48 y_7^2 + 96 y_7*x_6
      - 96 y_7*c1a_7_int_slack_0 + 48 y_8^2 + 192 x_0^2 + 192 x_0*x_2
      + 192 x_0*x_6 - 96 x_0*c1a_0_int_slack_0 - 96 x_0*c1a_1_int_slack_0
      - 96 x_0*c1a_1_int_slack_1 - 96 x_0*c1a_3_int_slack_0
      - 96 x_0*c1a_3_int_slack_1 + 192 x_2^2 + 96 x_2*x_6
      - 96 x_2*c1a_1_int_slack_0 - 96 x_2*c1a_1_int_slack_1
      - 96 x_2*c1a_2_int_slack_0 - 96 x_2*c1a_5_int_slack_0 + 192 x_6^2
      - 96 x_6*c1a_3_int_slack_0 - 96 x_6*c1a_3_int_slack_1
      - 96 x_6*c1a_6_int_slack_0 - 96 x_6*c1a_7_int_slack_0
      + 48 c1a_0_int_slack_0^2 + 48 c1a_1_int_slack_0^2
      + 96 c1a_1_int_slack_0*c1a_1_int_slack_1 + 48 c1a_1_int_slack_1^2
      + 48 c1a_2_int_slack_0^2 + 48 c1a_3_int_slack_0^2
      + 96 c1a_3_int_slack_0*c1a_3_int_slack_1 + 48 c1a_3_int_slack_1^2
      + 48 c1a_5_int_slack_0^2 + 48 c1a_6_int_slack_0^2 + 48 c1a_7_int_slack_0^2
      ]/2 + 312
Subject To

Bounds
 0 <= y_0 <= 1
 0 <= y_1 <= 1
 0 <= y_2 <= 1
 0 <= y_3 <= 1
 0 <= y_4 <= 1
 0 <= y_5 <= 1
 0 <= y_6 <= 1
 0 <= y_7 <= 1
 0 <= y_8 <= 1
 0 <= x_0 <= 1
 0 <= x_2 <= 1
 0 <= x_6 <= 1
 0 <= c1a_0_int_slack_0 <= 1
 0 <= c1a_1_int_slack_0 <= 1
 0 <= c1a_1_int_slack_1 <= 1
 0 <= c1a_2_int_slack_0 <= 1
 0 <= c1a_3_int_slack_0 <= 1
 0 <= c1a_3_int_slack_1 <= 1
 0 <= c1a_5_int_slack_0 <= 1
 0 <= c1a_6_int_slack_0 <= 1
 0 <= c1a_7_int_slack_0 <= 1

Binaries
 y_0 y_1 y_2 y_3 y_4 y_5 y_6 y_7 y_8 x_0 x_2 x_6 c1a_0_int_slack_0
 c1a_1_int_slack_0 c1a_1_int_slack_1 c1a_2_int_slack_0 c1a_3_int_slack_0
 c1a_3_int_slack_1 c1a_5_int_slack_0 c1a_6_int_slack_0 c1a_7_int_slack_0
End
